benchmarks_vrp/CMT2/no_cluster/CMT2_2.vrp
NAME: CMT2_2
TYPE: CVRP
COMMENT: 835.26 - Cluster Nr.2
DIMENSION: 7
CAPACITY: 140
EDGE_WEIGHT_TYPE: EUC_2D
NODE_COORD_TYPE: TWOD_COORDS
NODE_COORD_SECTION: 
6 35 16
3 50 15
5 40 40
7 44 13
1 36 6
2 48 21
4 40 20
DEPOT_SECTION: 
5
-1
DEMAND_SECTION: 
6 29
3 19
4 10
2 20
1 15
7 28
5 0
EOF
