benchmarks_vrp/CMT2/no_cluster/CMT2_2.tour
NAME: CMT2_2 solution
TYPE: TOUR
TOUR_SECTION:
5 2 3 7 1 6 4 -1
-1
EOF